1	4	1	2	4	15	0	0	0	0	0	0
800	1	0	0	0	0	0	0	0	0	0	0
100	1	0	77.75	3.47	1	0	0	0	0	0	0
100	1	0	77.75	3.47	1	0	0	0	0	0	0
100	1	0	77.75	3.47	1	0	0	0	0	0	0
100     1       0       77.75   3.47    1       0       0       0       0       0       0
50	150	0	0	0	0	9999	0	0	99999	0	0
50	75	0	0	0	0	9999	0	0	99999	0	0
50	25	0	0	0	0	9999	0	0	99999	0	0
50	75	0	0	0	0	9999	0	0	0	0	0
50	25	0	0	0	0	9999	0	0	0	0	0
77	30	0	0	0	0	9999	0	0	0	0	0
39      26      0       0       0       0       9999    0       0       0       0       0
32	30	10	9	1	365	549	90	0	0	0	0
63	58	10	9	1	978	1142	90	0	0	0	0
60	60	10	10	0	834	1224	90	0	0	0	0
38	70	10	5	5	861	1226	90	0	0	0	0
48	30	10	6	4	305	485	90	0	0	0	0
23	52	10	4	6	364	412	90	0	0	0	0
30	50	10	6	4	111	269	90	0	0	0	0
25	30	10	8	2	848	1066	90	0	0	0	0
30	30	10	10	0	494	604	90	0	0	0	0
45	30	10	7	3	378	598	90	0	0	0	0
47	35	10	7	3	1058	1230	90	0	0	0	0
45	68	10	7	3	120	307	90	0	0	0	0
88	35	20	8	12	698	902	90	0	0	0	0
70	58	20	17	3	700	862	90	0	0	0	0
30	35	10	9	1	765	889	90	0	0	0	0
